g3 0 1 0	# problem 1493
 40 5 1 0 4	# vars, constraints, objectives, ranges, eqns
 1 1	# nonlinear constraints, objectives
 0 0	# network constraints: nonlinear, linear
 40 40 40	# nonlinear vars in constraints, objectives, both
 0 0 0 1	# linear network variables; functions; arith, flags
 0 0 0 0 0	# discrete variables: binary, integer, nonlinear (b,c,o)
 200 40	# nonzeros in Jacobian, gradients
 0 0	# max name lengths: constraints, variables
 0 0 0 0 0	# common exprs: b,c,o,c1,o1
b
0 0 1
0 0 1
0 0 1
0 0 1
0 0 1
0 0 1
0 0 1
0 0 1
0 0 1
0 0 1
0 0 1
0 0 1
0 0 1
0 0 1
0 0 1
0 0 1
0 0 1
0 0 1
0 0 1
0 0 1
0 0 1
0 0 1
0 0 1
0 0 1
0 0 1
0 0 1
0 0 1
0 0 1
0 0 1
0 0 1
0 0 1
0 0 1
0 0 1
0 0 1
0 0 1
0 0 1
0 0 1
0 0 1
0 0 1
0 0 1
r
1 67.98
4 -0.17
4 0.51
4 -0.41
4 -0.15
C0
o54
792
o2
n0.94
o5
v0
n2
o2
o2
n1.34
v1
v0
o2
o2
n2
v2
v0
o16
o2
o2
n1.82
v3
v0
o2
o2
n0.18
v4
v0
o16
o2
o2
n1.08
v5
v0
o16
o2
o2
n1.16
v6
v0
o2
o2
n1.28
v7
v0
o16
o2
o2
n0.42
v8
v0
o16
o2
o2
n0.24
v9
v0
o2
o2
n1.02
v10
v0
o2
o2
n0.52
v11
v0
o2
o2
n1.64
v12
v0
o2
o2
n0.4
v13
v0
o16
o2
o2
n0.92
v14
v0
o16
o2
o2
n1.28
v15
v0
o2
o2
n1.06
v16
v0
o16
o2
o2
n0.26
v17
v0
o16
o2
o2
n1.62
v18
v0
o16
o2
o2
n0.06
v19
v0
o16
o2
o2
n1.16
v20
v0
o2
o2
n1.66
v21
v0
o16
o2
o2
n1.18
v22
v0
o16
o2
o2
n1.48
v23
v0
o16
o2
o2
n1.62
v24
v0
o2
o2
n1.82
v25
v0
o16
o2
o2
n1.66
v26
v0
o16
o2
o2
n0.32
v27
v0
o2
o2
n1.68
v28
v0
o2
o2
n1.26
v29
v0
o2
o2
n1.36
v30
v0
o2
o2
n0.82
v31
v0
o16
o2
o2
n1.86
v32
v0
o16
o2
o2
n0.52
v33
v0
o16
o2
o2
n1.66
v34
v0
o2
o2
n1.44
v35
v0
o2
o2
n0.64
v36
v0
o16
o2
o2
n1.62
v37
v0
o16
o2
o2
n0.68
v38
v0
o2
o2
n0.08
v39
v0
o2
n-0.77
o5
v1
n2
o2
o2
n1.12
v2
v1
o16
o2
o2
n0.44
v3
v1
o16
o2
o2
n1.12
v4
v1
o2
o2
n1.24
v5
v1
o16
o2
o2
n1.78
v6
v1
o2
o2
n0.72
v7
v1
o2
o2
n1.34
v8
v1
o2
o2
n1.66
v9
v1
o16
o2
o2
n1.06
v10
v1
o16
o2
o2
n1.8
v11
v1
o16
o2
o2
n0.76
v12
v1
o2
o2
n0.48
v14
v1
o2
o2
n1.28
v15
v1
o2
o2
n0.16
v16
v1
o16
o2
o2
n1.78
v17
v1
o16
o2
o2
n0.06
v18
v1
o16
o2
o2
n1.28
v19
v1
o2
o2
n0.56
v20
v1
o16
o2
o2
n0.1
v21
v1
o2
o2
n1.92
v22
v1
o16
o2
o2
n0.38
v23
v1
o16
o2
o2
n1.6
v24
v1
o16
o2
o2
n1.7
v25
v1
o16
o2
o2
n1.86
v26
v1
o2
o2
n0.1
v27
v1
o2
o2
n1.88
v28
v1
o2
o2
n0.18
v30
v1
o16
o2
o2
n1.12
v31
v1
o2
o2
n0.8
v32
v1
o2
o2
n1.66
v33
v1
o2
o2
n0.14
v34
v1
o2
o2
n1.44
v35
v1
o16
o2
o2
n1.7
v36
v1
o16
o2
o2
n1.08
v37
v1
o16
o2
o2
n2
v38
v1
o16
o2
o2
n0.1
v39
v1
o2
n-0.01
o5
v2
n2
o16
o2
o2
n0.86
v3
v2
o16
o2
o2
n0.42
v4
v2
o2
o2
n0.52
v5
v2
o16
o2
o2
n0.6
v6
v2
o2
o2
n1.96
v7
v2
o16
o2
o2
n0.78
v8
v2
o16
o2
o2
n1.78
v9
v2
o16
o2
o2
n1.62
v10
v2
o16
o2
o2
n0.7
v11
v2
o16
o2
o2
n0.8
v12
v2
o2
o2
n1.2
v13
v2
o2
o2
n1.28
v14
v2
o2
o2
n1.82
v15
v2
o16
o2
o2
n0.34
v16
v2
o16
o2
o2
n0.08
v17
v2
o2
o2
n0.32
v18
v2
o16
o2
o2
n1.16
v19
v2
o16
o2
o2
n1.58
v20
v2
o2
o2
n1.02
v21
v2
o16
o2
o2
n1.42
v22
v2
o16
o2
o2
n1.58
v23
v2
o2
o2
n1.32
v24
v2
o16
o2
o2
n0.28
v25
v2
o2
o2
n1.3
v26
v2
o2
o2
n0.78
v27
v2
o2
o2
n0.56
v28
v2
o2
o2
n1.74
v29
v2
o16
o2
o2
n1.84
v30
v2
o2
o2
n0.88
v32
v2
o2
o2
n0.64
v33
v2
o2
o2
n0.4
v34
v2
o2
o2
n0.64
v36
v2
o16
o2
o2
n1.24
v37
v2
o16
o2
o2
n0.12
v38
v2
o2
o2
n1.04
v39
v2
o16
o2
o2
n0.06
v4
v3
o16
o2
o2
n0.92
v5
v3
o2
o2
n0.62
v6
v3
o16
o2
o2
n1.86
v7
v3
o2
o2
n0.14
v8
v3
o2
o2
n0.16
v9
v3
o16
o2
o2
n1.46
v10
v3
o2
o2
n0.6
v11
v3
o2
o2
n0.44
v12
v3
o16
o2
o2
n1.82
v13
v3
o2
o2
n0.68
v14
v3
o2
o2
n1.12
v15
v3
o2
o2
n1.34
v16
v3
o16
o2
o2
n1.22
v17
v3
o16
o2
o2
n0.4
v18
v3
o2
o2
n0.18
v19
v3
o16
o2
o2
n0.56
v20
v3
o2
o2
n1.78
v21
v3
o16
o2
o2
n0.76
v22
v3
o2
o2
n0.38
v23
v3
o2
o2
n0.66
v24
v3
o16
o2
o2
n1.6
v25
v3
o2
o2
n0.74
v26
v3
o2
o2
n0.68
v27
v3
o2
o2
n1.44
v28
v3
o16
o2
o2
n0.88
v29
v3
o16
o2
o2
n0.6
v30
v3
o16
o2
o2
n1.02
v31
v3
o16
o2
o2
n0.78
v32
v3
o2
o2
n1.32
v33
v3
o16
o2
o2
n0.4
v34
v3
o16
o2
o2
n0.52
v35
v3
o2
o2
n1.94
v36
v3
o16
o2
o2
n0.42
v37
v3
o16
o2
o2
n0.48
v39
v3
o2
n-0.12
o5
v4
n2
o16
o2
o2
n1.54
v5
v4
o16
o2
o2
n1.46
v6
v4
o2
o2
n0.98
v7
v4
o16
o2
o2
n0.14
v8
v4
o2
o2
n0.72
v9
v4
o16
o2
o2
n1.42
v10
v4
o16
o2
o2
n1.14
v11
v4
o16
o2
o2
n0.64
v12
v4
o2
o2
n1.46
v13
v4
o2
o2
n1.62
v14
v4
o2
o2
n1.18
v15
v4
o2
o2
n0.08
v16
v4
o2
o2
n0.86
v18
v4
o2
o2
n0.22
v19
v4
o2
o2
n1.68
v20
v4
o16
o2
o2
n1.86
v21
v4
o16
o2
o2
n0.28
v22
v4
o16
o2
o2
n0.7
v23
v4
o2
o2
n1.68
v24
v4
o16
o2
o2
n1.28
v25
v4
o16
o2
o2
n1.88
v26
v4
o2
o2
n0.2
v27
v4
o16
o2
o2
n0.74
v28
v4
o16
o2
o2
n1.92
v29
v4
o2
o2
n1.84
v30
v4
o2
o2
n0.08
v32
v4
o2
o2
n0.76
v33
v4
o2
o2
n0.64
v34
v4
o2
o2
n0.92
v35
v4
o16
o2
o2
n1.94
v36
v4
o16
o2
o2
n1.06
v37
v4
o16
o2
o2
n1.46
v38
v4
o16
o2
o2
n0.76
v39
v4
o2
n0.55
o5
v5
n2
o2
o2
n0.24
v6
v5
o16
o2
o2
n1.7
v7
v5
o2
o2
n1.18
v8
v5
o16
o2
o2
n0.84
v9
v5
o2
o2
n1.48
v10
v5
o2
o2
n1.02
v11
v5
o2
o2
n0.36
v12
v5
o2
o2
n1.34
v13
v5
o2
v14
v5
o16
o2
o2
n1.56
v15
v5
o16
o2
o2
n0.42
v16
v5
o16
o2
o2
n1.98
v17
v5
o16
o2
o2
n0.86
v18
v5
o16
o2
o2
n1.02
v19
v5
o16
o2
o2
n1.48
v20
v5
o16
o2
o2
n1.2
v21
v5
o2
o2
n0.52
v22
v5
o16
o2
o2
n0.56
v23
v5
o2
o2
n0.7
v24
v5
o16
o2
o2
n1.16
v25
v5
o16
o2
o2
n1.72
v26
v5
o2
o2
n1.68
v27
v5
o2
o2
n0.54
v28
v5
o16
o2
o2
n0.84
v29
v5
o2
o2
n1.06
v30
v5
o16
o2
o2
n1.34
v31
v5
o2
o2
n1.18
v32
v5
o2
o2
n0.72
v33
v5
o16
o2
o2
n0.3
v34
v5
o16
o2
o2
n0.06
v35
v5
o16
o2
o2
n1.44
v36
v5
o2
o2
n0.96
v37
v5
o2
o2
n0.02
v38
v5
o2
o2
n0.68
v39
v5
o2
n0.67
o5
v6
n2
o2
o2
n0.18
v7
v6
o2
o2
n0.42
v8
v6
o16
o2
o2
n0.68
v9
v6
o2
o2
n1.34
v10
v6
o16
o2
o2
n0.5
v11
v6
o16
o2
o2
n0.02
v12
v6
o16
o2
o2
n1.22
v13
v6
o2
o2
n1.72
v14
v6
o16
o2
o2
n0.9
v15
v6
o2
o2
n1.44
v16
v6
o16
o2
o2
n1.86
v17
v6
o2
o2
n0.2
v18
v6
o16
o2
o2
n1.22
v19
v6
o2
o2
n1.74
v20
v6
o16
o2
o2
n0.76
v21
v6
o2
o2
n1.64
v22
v6
o16
o2
o2
n1.9
v23
v6
o2
o2
n0.3
v24
v6
o16
o2
o2
n0.88
v25
v6
o16
o2
o2
n0.8
v26
v6
o16
o2
o2
n1.6
v27
v6
o16
o2
o2
n0.3
v28
v6
o2
o2
n0.28
v29
v6
o16
o2
o2
n0.48
v30
v6
o2
o2
n1.38
v31
v6
o2
o2
n0.58
v33
v6
o16
o2
o2
n0.48
v34
v6
o2
o2
n0.8
v35
v6
o2
o2
n0.96
v36
v6
o2
o2
n1.58
v37
v6
o16
o2
o2
n1.9
v38
v6
o16
o2
o2
n1.1
v39
v6
o2
n-0.07
o5
v7
n2
o16
o2
o2
n0.14
v8
v7
o2
o2
n1.38
v9
v7
o16
o2
o2
n1.12
v10
v7
o16
o2
o2
n1.56
v11
v7
o2
o2
n1.32
v12
v7
o2
o2
n0.02
v13
v7
o2
o2
n0.42
v14
v7
o16
o2
o2
n1.3
v15
v7
o16
o2
o2
n0.9
v16
v7
o16
o2
o2
n1.82
v17
v7
o2
o2
n0.08
v19
v7
o2
o2
n1.2
v20
v7
o2
o2
n1.2
v21
v7
o16
o2
o2
n0.68
v22
v7
o16
o2
o2
n0.54
v23
v7
o2
o2
n0.24
v24
v7
o2
o2
n0.3
v25
v7
o2
o2
n1.24
v26
v7
o16
o2
o2
n0.3
v27
v7
o2
o2
n1.66
v28
v7
o16
o2
o2
n1.6
v29
v7
o16
o2
o2
n0.4
v30
v7
o2
o2
n1.62
v31
v7
o16
o2
o2
n1.12
v32
v7
o2
o2
n1.9
v33
v7
o2
o2
n1.14
v34
v7
o2
o2
n1.32
v35
v7
o16
o2
o2
n0.5
v36
v7
o2
o2
n0.18
v37
v7
o2
o2
n1.18
v38
v7
o16
o2
o2
n0.22
v39
v7
o2
n0.68
o5
v8
n2
o2
o2
n0.54
v9
v8
o16
o2
o2
n0.56
v10
v8
o2
v11
v8
o16
o2
o2
n0.1
v12
v8
o2
o2
n0.12
v13
v8
o2
o2
n0.08
v14
v8
o2
o2
n1.42
v15
v8
o2
o2
n0.94
v16
v8
o16
o2
o2
n1.3
v17
v8
o2
o2
n0.74
v18
v8
o2
o2
n1.16
v19
v8
o16
o2
o2
n1.34
v20
v8
o16
o2
o2
n0.74
v21
v8
o16
o2
o2
n1.92
v22
v8
o2
o2
n0.76
v23
v8
o16
o2
o2
n1.46
v24
v8
o16
o2
o2
n1.04
v25
v8
o2
o2
n1.16
v26
v8
o16
o2
o2
n1.26
v27
v8
o2
o2
n0.96
v28
v8
o16
o2
o2
n1.04
v29
v8
o16
o2
o2
n1.22
v30
v8
o16
o2
o2
n1.98
v31
v8
o2
o2
n1.2
v32
v8
o2
o2
n0.6
v33
v8
o16
o2
o2
n1.56
v35
v8
o2
o2
n1.06
v36
v8
o2
o2
n0.14
v37
v8
o16
o2
o2
n1.16
v38
v8
o2
o2
n1.62
v39
v8
o2
n0.55
o5
v9
n2
o16
o2
o2
n1.88
v10
v9
o2
o2
n0.32
v11
v9
o16
o2
o2
n1.74
v12
v9
o2
o2
n0.54
v13
v9
o16
o2
o2
n1.24
v14
v9
o2
o2
n0.64
v15
v9
o2
o2
n0.62
v16
v9
o16
o2
o2
n0.24
v17
v9
o2
o2
n1.42
v18
v9
o2
o2
n1.46
v19
v9
o2
o2
n0.22
v20
v9
o2
o2
n1.66
v21
v9
o16
o2
o2
n1.12
v22
v9
o16
o2
o2
n1.2
v23
v9
o16
o2
o2
n0.64
v24
v9
o2
o2
n1.74
v25
v9
o2
o2
n1.36
v26
v9
o16
o2
o2
n1.26
v27
v9
o16
o2
o2
n1.96
v28
v9
o16
o2
o2
n0.84
v29
v9
o2
o2
n1.18
v30
v9
o2
o2
n0.4
v31
v9
o2
o2
n0.94
v32
v9
o16
o2
o2
n1.6
v33
v9
o16
o2
o2
n0.18
v35
v9
o16
o2
o2
n0.6
v36
v9
o2
o2
n1.2
v37
v9
o16
o2
o2
n1.5
v38
v9
o16
o2
o2
n0.36
v39
v9
o2
n-0.98
o5
v10
n2
o16
o2
o2
n1.16
v11
v10
o16
o2
o2
n1.26
v13
v10
o2
o2
n1.74
v14
v10
o16
o2
o2
n1.84
v15
v10
o2
o2
n0.08
v16
v10
o2
o2
n1.46
v17
v10
o16
o2
o2
n0.66
v18
v10
o16
o2
o2
n1.68
v19
v10
o16
o2
o2
n1.04
v20
v10
o16
o2
o2
n1.82
v22
v10
o16
o2
o2
n0.84
v23
v10
o2
o2
n0.82
v24
v10
o16
o2
o2
n1.3
v25
v10
o2
o2
n0.32
v26
v10
o16
o2
o2
n1.36
v27
v10
o2
o2
n0.8
v28
v10
o16
o2
o2
n1.44
v29
v10
o2
o2
n0.84
v30
v10
o16
o2
o2
n1.26
v31
v10
o2
o2
n0.4
v32
v10
o2
o2
n0.64
v33
v10
o16
o2
o2
n0.1
v34
v10
o16
o2
o2
n1.9
v35
v10
o2
o2
n1.96
v36
v10
o16
o2
o2
n0.96
v37
v10
o2
o2
n1.76
v38
v10
o16
o2
o2
n1.94
v39
v10
o2
n0.19
o5
v11
n2
o16
o2
o2
n0.78
v12
v11
o2
o2
n0.98
v13
v11
o2
v14
v11
o2
o2
n0.48
v15
v11
o16
o2
o2
n1.2
v16
v11
o2
o2
n0.88
v17
v11
o2
o2
n0.48
v18
v11
o16
o2
o2
n0.72
v19
v11
o2
o2
n0.5
v20
v11
o2
o2
n1.88
v21
v11
o16
o2
o2
n1.1
v22
v11
o16
o2
o2
n1.6
v23
v11
o16
o2
o2
n0.32
v24
v11
o2
o2
n1.34
v25
v11
o2
o2
n1.2
v26
v11
o16
o2
o2
n0.64
v27
v11
o2
o2
n0.18
v28
v11
o16
o2
o2
n1.36
v29
v11
o2
o2
n0.98
v30
v11
o16
o2
o2
n0.56
v32
v11
o2
o2
n1.56
v33
v11
o16
o2
o2
n1.82
v34
v11
o16
o2
o2
n1.82
v35
v11
o2
o2
n1.14
v36
v11
o2
o2
n1.96
v37
v11
o16
o2
o2
n0.94
v38
v11
o2
o2
n1.9
v39
v11
o2
n0.71
o5
v12
n2
o16
o2
o2
n0.44
v13
v12
o16
o2
o2
n1.16
v14
v12
o2
o2
n0.98
v15
v12
o2
o2
n0.94
v16
v12
o2
o2
n0.18
v17
v12
o16
o2
o2
n0.86
v18
v12
o2
o2
n0.62
v19
v12
o16
o2
o2
n0.02
v20
v12
o16
o2
o2
n1.52
v21
v12
o16
o2
o2
n0.9
v22
v12
o16
o2
o2
n0.48
v23
v12
o2
o2
n0.4
v24
v12
o2
o2
n0.84
v25
v12
o2
o2
n1.22
v26
v12
o16
o2
o2
n0.88
v27
v12
o2
o2
n1.04
v28
v12
o16
o2
o2
n1.26
v29
v12
o2
o2
n1.44
v30
v12
o16
o2
o2
n0.38
v31
v12
o2
o2
n0.38
v32
v12
o2
o2
n0.46
v33
v12
o16
o2
o2
n0.42
v34
v12
o16
o2
o2
n1.46
v35
v12
o2
o2
n1.94
v36
v12
o2
o2
n0.38
v37
v12
o16
o2
o2
n1.26
v38
v12
o2
o2
n0.04
v39
v12
o2
n-0.06
o5
v13
n2
o16
o2
o2
n1.48
v14
v13
o16
o2
o2
n0.22
v15
v13
o2
o2
n1.76
v16
v13
o16
o2
o2
n1.08
v17
v13
o16
o2
o2
n0.06
v18
v13
o2
o2
n1.62
v19
v13
o16
o2
o2
n0.12
v20
v13
o16
o2
o2
n1.36
v21
v13
o16
o2
o2
n0.98
v22
v13
o2
o2
n0.54
v23
v13
o2
o2
n1.54
v24
v13
o16
o2
o2
n0.2
v25
v13
o2
o2
n0.92
v26
v13
o16
o2
o2
n1.04
v27
v13
o16
o2
o2
n0.5
v28
v13
o16
o2
o2
n1.02
v29
v13
o2
v30
v13
o2
o2
n0.04
v31
v13
o2
o2
n0.72
v32
v13
o2
o2
n0.74
v33
v13
o16
o2
o2
n0.38
v34
v13
o16
o2
o2
n0.78
v37
v13
o16
o2
o2
n0.4
v38
v13
o2
o2
n0.78
v39
v13
o2
n-0.06
o5
v14
n2
o2
o2
n1.62
v15
v14
o16
o2
o2
n1.8
v16
v14
o2
o2
n1.56
v17
v14
o16
o2
o2
n0.24
v18
v14
o2
o2
n0.3
v19
v14
o16
o2
o2
n1.02
v20
v14
o16
o2
o2
n0.56
v21
v14
o16
o2
o2
n0.14
v22
v14
o2
o2
n0.72
v23
v14
o2
o2
n1.2
v24
v14
o16
o2
o2
n1.86
v25
v14
o16
o2
o2
n0.84
v26
v14
o16
o2
o2
n0.58
v27
v14
o16
o2
o2
n1.3
v28
v14
o2
o2
n1.04
v29
v14
o2
o2
n0.68
v30
v14
o16
o2
o2
n1.52
v31
v14
o16
o2
o2
n0.84
v32
v14
o2
o2
n1.72
v33
v14
o16
o2
o2
n0.94
v34
v14
o2
o2
n0.12
v35
v14
o16
o2
o2
n1.42
v36
v14
o16
o2
o2
n0.16
v37
v14
o2
o2
n0.66
v38
v14
o16
o2
o2
n1.9
v39
v14
o2
n0.03
o5
v15
n2
o2
o2
n0.7
v17
v15
o16
o2
o2
n0.26
v18
v15
o16
o2
o2
n1.1
v19
v15
o2
o2
n0.62
v20
v15
o16
o2
o2
n1.58
v21
v15
o16
o2
o2
n0.1
v22
v15
o2
o2
n0.08
v23
v15
o16
o2
o2
n0.98
v25
v15
o16
o2
o2
n1.68
v26
v15
o2
o2
n0.26
v27
v15
o2
o2
n1.86
v28
v15
o2
o2
n0.82
v29
v15
o16
o2
o2
n0.66
v30
v15
o2
o2
n0.48
v31
v15
o2
o2
n0.34
v32
v15
o16
o2
o2
n1.02
v33
v15
o2
o2
n1.64
v34
v15
o2
o2
n0.36
v35
v15
o2
o2
n1.78
v36
v15
o2
o2
n0.98
v37
v15
o16
o2
o2
n0.44
v38
v15
o16
o2
o2
n2
v39
v15
o2
n-0.41
o5
v16
n2
o16
o2
o2
n0.98
v17
v16
o16
o2
o2
n1.72
v18
v16
o2
o2
n1.84
v19
v16
o16
o2
o2
n0.92
v20
v16
o16
o2
o2
n0.6
v21
v16
o2
o2
n1.66
v22
v16
o16
o2
o2
n0.32
v23
v16
o16
o2
o2
n0.72
v24
v16
o16
o2
o2
n0.12
v25
v16
o16
o2
o2
n1.76
v26
v16
o2
o2
n0.52
v27
v16
o16
o2
o2
n0.3
v28
v16
o16
o2
o2
n1.76
v29
v16
o16
o2
o2
n1.06
v31
v16
o16
o2
o2
n1.7
v32
v16
o16
o2
o2
n0.8
v33
v16
o2
o2
n0.22
v34
v16
o2
o2
n1.64
v35
v16
o16
o2
o2
n1.28
v36
v16
o2
o2
n1.24
v37
v16
o16
o2
o2
n1.1
v38
v16
o2
o2
n1.7
v39
v16
o2
n0.56
o5
v17
n2
o2
o2
n1.58
v18
v17
o16
o2
o2
n1.12
v20
v17
o2
o2
n0.4
v21
v17
o16
o2
o2
n0.96
v22
v17
o16
o2
o2
n0.18
v23
v17
o16
o2
o2
n1.06
v24
v17
o16
o2
o2
n1.66
v25
v17
o2
o2
n1.46
v26
v17
o16
o2
o2
n0.98
v27
v17
o2
o2
n1.12
v28
v17
o16
o2
v29
v17
o2
o2
n1.16
v30
v17
o2
o2
n1.76
v31
v17
o16
o2
o2
n1.96
v32
v17
o16
o2
o2
n0.18
v33
v17
o2
o2
n1.74
v34
v17
o2
o2
n0.64
v36
v17
o2
o2
n0.54
v37
v17
o16
o2
o2
n1.72
v38
v17
o16
o2
o2
n1.56
v39
v17
o16
o2
o2
n1.42
v19
v18
o16
o2
o2
n1.42
v20
v18
o16
o2
o2
n0.92
v21
v18
o16
o2
o2
n0.98
v22
v18
o16
o2
o2
n1.16
v23
v18
o2
o2
n0.46
v24
v18
o2
o2
n0.2
v25
v18
o16
o2
o2
n0.68
v26
v18
o16
o2
o2
n0.54
v27
v18
o16
o2
o2
n1.44
v28
v18
o2
o2
n0.34
v29
v18
o2
o2
n1.54
v30
v18
o16
o2
o2
n0.78
v31
v18
o2
o2
n0.6
v32
v18
o16
o2
o2
n1.26
v33
v18
o16
o2
o2
n1.64
v34
v18
o2
o2
n1.16
v35
v18
o2
o2
n1.36
v36
v18
o2
o2
n0.34
v37
v18
o2
o2
n0.38
v38
v18
o16
o2
o2
n0.98
v39
v18
o2
n-0.67
o5
v19
n2
o16
o2
o2
n1.46
v20
v19
o2
o2
n0.62
v21
v19
o2
o2
n0.86
v22
v19
o2
o2
n1.06
v23
v19
o2
o2
n0.48
v24
v19
o16
o2
o2
n0.16
v25
v19
o2
o2
n0.58
v26
v19
o2
o2
n1.3
v27
v19
o2
o2
n0.28
v28
v19
o2
o2
n1.44
v29
v19
o16
o2
o2
n1.44
v30
v19
o16
o2
o2
n1.16
v32
v19
o16
o2
o2
n0.44
v33
v19
o2
o2
n0.04
v34
v19
o16
o2
o2
n0.18
v35
v19
o16
o2
o2
n0.86
v36
v19
o16
o2
o2
n0.5
v37
v19
o16
o2
o2
n1.16
v38
v19
o16
o2
o2
n0.72
v39
v19
o2
o2
n1.76
v21
v20
o2
o2
n1.26
v22
v20
o16
o2
o2
n1.04
v24
v20
o16
o2
o2
n0.22
v25
v20
o16
o2
o2
n0.84
v26
v20
o16
o2
o2
n1.1
v27
v20
o16
o2
o2
n1.76
v28
v20
o2
o2
n1.52
v29
v20
o16
o2
o2
n1.26
v30
v20
o16
o2
o2
n1.08
v31
v20
o16
o2
o2
n0.62
v32
v20
o16
o2
o2
n1.8
v33
v20
o16
o2
o2
n1.04
v34
v20
o2
o2
n1.14
v35
v20
o2
o2
n1.76
v36
v20
o2
o2
n1.84
v37
v20
o2
o2
n0.3
v38
v20
o2
o2
n0.3
v39
v20
o2
n-0.98
o5
v21
n2
o16
o2
o2
n1.36
v22
v21
o2
o2
n0.32
v23
v21
o16
o2
o2
n0.02
v24
v21
o16
o2
o2
n0.48
v25
v21
o2
o2
n0.02
v26
v21
o2
o2
n1.98
v27
v21
o16
o2
o2
n0.44
v28
v21
o2
o2
n0.66
v29
v21
o16
o2
o2
n1.14
v30
v21
o2
o2
n0.8
v31
v21
o2
o2
n0.1
v32
v21
o16
o2
o2
n0.46
v33
v21
o2
o2
n0.3
v34
v21
o2
o2
n1.96
v35
v21
o2
o2
n0.28
v36
v21
o2
o2
n1.98
v37
v21
o2
o2
n1.66
v38
v21
o2
o2
n0.36
v39
v21
o2
n-0.64
o5
v22
n2
o2
o2
n1.36
v23
v22
o16
o2
o2
n0.4
v24
v22
o16
o2
o2
n1.14
v25
v22
o16
o2
o2
n1.66
v26
v22
o2
v27
v22
o2
o2
n1.7
v28
v22
o16
o2
o2
n1.26
v29
v22
o2
o2
n0.92
v30
v22
o2
o2
n0.56
v31
v22
o16
o2
o2
n0.76
v32
v22
o2
o2
n1.78
v33
v22
o16
o2
o2
n0.48
v34
v22
o16
o2
o2
n1.56
v35
v22
o16
o2
o2
n0.9
v36
v22
o2
o2
n1.32
v37
v22
o16
o2
o2
n1.94
v38
v22
o2
o2
n1.74
v39
v22
o2
n0.11
o5
v23
n2
o2
o2
n1.72
v24
v23
o2
o2
n0.64
v25
v23
o2
o2
n1.88
v26
v23
o2
o2
n0.66
v27
v23
o16
o2
o2
n0.94
v28
v23
o2
o2
n0.8
v29
v23
o2
o2
n0.44
v30
v23
o16
o2
o2
n1.68
v31
v23
o16
o2
o2
n1.9
v32
v23
o2
o2
n0.78
v33
v23
o2
o2
n1.88
v34
v23
o2
o2
n0.38
v35
v23
o2
o2
n0.92
v36
v23
o2
o2
n1.36
v37
v23
o2
o2
n0.66
v38
v23
o2
o2
n0.68
v39
v23
o2
n0.5
o5
v24
n2
o2
o2
n0.14
v25
v24
o16
o2
o2
n1.34
v26
v24
o16
o2
o2
n1.28
v27
v24
o2
o2
n0.54
v28
v24
o2
o2
n0.88
v29
v24
o2
o2
n1.08
v30
v24
o2
o2
n0.92
v31
v24
o16
o2
o2
n0.28
v32
v24
o16
o2
o2
n1.78
v33
v24
o16
o2
o2
n1.12
v34
v24
o16
o2
o2
n0.22
v35
v24
o2
o2
n0.78
v36
v24
o2
o2
n0.16
v37
v24
o2
o2
n0.58
v38
v24
o16
o2
o2
n1.52
v39
v24
o2
n0.07
o5
v25
n2
o2
o2
n0.94
v26
v25
o2
o2
n1.62
v27
v25
o2
o2
n0.52
v28
v25
o2
o2
n0.14
v29
v25
o2
o2
n1.82
v30
v25
o16
o2
o2
n0.02
v31
v25
o16
o2
o2
n0.84
v32
v25
o16
o2
o2
n1.38
v33
v25
o16
o2
o2
n0.72
v34
v25
o16
o2
o2
n0.62
v35
v25
o16
o2
o2
n1.9
v36
v25
o2
o2
n1.06
v37
v25
o16
o2
o2
n0.98
v38
v25
o2
n0.22
o5
v26
n2
o16
o2
o2
n0.1
v27
v26
o16
o2
o2
n0.12
v28
v26
o16
o2
o2
n0.66
v29
v26
o2
o2
n0.98
v30
v26
o2
o2
n0.76
v31
v26
o16
o2
o2
n0.68
v32
v26
o16
o2
o2
n1.12
v33
v26
o16
o2
o2
n1.74
v34
v26
o2
o2
n1.92
v35
v26
o16
o2
o2
n1.76
v36
v26
o16
o2
o2
n0.42
v37
v26
o16
o2
o2
n0.34
v38
v26
o2
o2
n1.22
v39
v26
o2
n-0.85
o5
v27
n2
o16
o2
o2
n0.32
v28
v27
o16
o2
o2
n1.14
v29
v27
o16
o2
v30
v27
o16
o2
o2
n1.12
v31
v27
o16
o2
o2
n0.68
v32
v27
o2
o2
n0.9
v33
v27
o16
o2
o2
n1.62
v34
v27
o2
o2
n0.66
v35
v27
o16
o2
o2
n1.94
v36
v27
o16
o2
o2
n0.12
v37
v27
o16
o2
o2
n1.12
v38
v27
o2
o2
n1.12
v39
v27
o2
n-0.35
o5
v28
n2
o16
o2
o2
n0.74
v29
v28
o16
o2
o2
n1.36
v30
v28
o2
o2
n1.18
v31
v28
o16
o2
o2
n1.26
v33
v28
o2
o2
n1.12
v34
v28
o2
o2
n0.32
v35
v28
o2
o2
n1.18
v36
v28
o2
o2
n0.2
v37
v28
o16
o2
o2
n1.26
v38
v28
o16
o2
o2
n0.04
v39
v28
o2
n0.12
o5
v29
n2
o2
o2
n0.58
v30
v29
o16
o2
o2
n1.58
v31
v29
o16
o2
o2
n1.56
v32
v29
o2
o2
n0.92
v33
v29
o16
o2
o2
n1.66
v34
v29
o2
o2
n0.76
v35
v29
o2
o2
n1.4
v36
v29
o2
o2
n1.74
v37
v29
o16
o2
o2
n0.54
v38
v29
o16
o2
o2
n1.94
v39
v29
o2
n0.43
o5
v30
n2
o16
o2
o2
n0.74
v31
v30
o16
o2
o2
n0.4
v32
v30
o16
o2
o2
n1.92
v33
v30
o16
o2
o2
n1.26
v34
v30
o16
o2
o2
n1.64
v35
v30
o16
o2
o2
n2
v36
v30
o2
o2
n0.1
v37
v30
o2
o2
n0.56
v38
v30
o2
o2
n0.18
v39
v30
o2
n-0.12
o5
v31
n2
o2
o2
n0.42
v32
v31
o16
o2
o2
n1.9
v33
v31
o2
o2
n1.78
v34
v31
o16
o2
o2
n1.24
v35
v31
o2
o2
n1.86
v36
v31
o2
o2
n0.94
v37
v31
o2
o2
n0.18
v38
v31
o16
o2
o2
n0.9
v39
v31
o2
n0.02
o5
v32
n2
o16
o2
o2
n0.18
v33
v32
o16
o2
o2
n1.3
v34
v32
o2
o2
n0.84
v35
v32
o2
o2
n1.86
v36
v32
o2
o2
n0.1
v37
v32
o16
o2
o2
n1.1
v38
v32
o16
o2
o2
n1.2
v39
v32
o2
n0.29
o5
v33
n2
o2
o2
n1.32
v34
v33
o16
o2
o2
n0.24
v35
v33
o2
o2
n1.04
v36
v33
o16
o2
o2
n1.76
v37
v33
o16
o2
o2
n0.68
v38
v33
o16
o2
o2
n0.3
v39
v33
o2
n-0.71
o5
v34
n2
o2
o2
n1.12
v35
v34
o2
o2
n0.02
v36
v34
o16
o2
o2
n1.04
v37
v34
o2
o2
n1.36
v38
v34
o2
o2
n1.54
v39
v34
o2
n0.77
o5
v35
n2
o2
o2
n1.84
v36
v35
o16
o2
o2
n1.88
v37
v35
o16
o2
o2
n1.82
v38
v35
o2
o2
n0.92
v39
v35
o2
n0.12
o5
v36
n2
o2
o2
n1.3
v37
v36
o16
o2
o2
n1.5
v38
v36
o16
o2
o2
n1.92
v39
v36
o2
n0.74
o5
v37
n2
o2
o2
n0.96
v38
v37
o16
o2
o2
n0.36
v39
v37
o2
n-0.88
o5
v38
n2
o16
o2
o2
n0.06
v39
v38
o2
n0.51
o5
v39
n2
C1
n0
C2
n0
C3
n0
C4
n0
O0 0
o54
798
o2
n-0.76
o5
v0
n2
o16
o2
o2
n0.3
v0
v1
o16
o2
o2
n0.52
v0
v2
o2
o2
n1.48
v0
v3
o2
o2
n1.92
v0
v4
o2
o2
n1.96
v0
v5
o16
o2
o2
n1.66
v0
v6
o16
o2
o2
n0.58
v0
v7
o2
o2
n1.4
v0
v8
o16
o2
o2
n0.4
v0
v9
o2
o2
n0.32
v0
v10
o2
o2
n0.1
v0
v11
o2
o2
n0.6
v0
v12
o2
o2
n0.32
v0
v13
o2
o2
n0.98
v0
v14
o16
o2
o2
n0.54
v0
v15
o2
o2
n0.8
v0
v16
o16
o2
o2
n0.56
v0
v17
o2
o2
n1.34
v0
v19
o2
o2
n0.96
v0
v20
o2
o2
n0.6
v0
v21
o2
o2
n0.62
v0
v22
o16
o2
o2
n0.2
v0
v23
o16
o2
o2
n0.2
v0
v24
o2
o2
n0.06
v0
v25
o2
o2
n1.16
v0
v26
o2
o2
n1.18
v0
v27
o2
o2
n1.64
v0
v28
o16
o2
o2
n1.7
v0
v29
o2
o2
n1.06
v0
v30
o2
o2
n0.84
v0
v31
o16
o2
o2
n0.46
v0
v32
o2
o2
n1.64
v0
v33
o2
o2
n0.44
v0
v34
o16
o2
o2
n1.14
v0
v35
o2
o2
n1.6
v0
v36
o2
o2
n1.2
v0
v37
o2
o2
n0.86
v0
v38
o2
o2
n1.58
v0
v39
o2
n0.4
o5
v1
n2
o16
o2
o2
n1.04
v1
v2
o16
o2
o2
n0.78
v1
v3
o16
o2
o2
n1.76
v1
v4
o2
o2
n0.46
v1
v5
o16
o2
o2
n1.9
v1
v6
o2
o2
n0.62
v1
v7
o16
o2
o2
n1.1
v1
v8
o16
o2
o2
n0.24
v1
v9
o16
o2
o2
n0.34
v1
v10
o2
o2
n0.5
v1
v11
o16
o2
o2
n1.08
v1
v12
o16
o2
o2
n1.86
v1
v13
o16
o2
o2
n0.16
v1
v14
o16
o2
o2
n0.82
v1
v15
o16
o2
o2
n0.52
v1
v16
o16
o2
o2
n0.76
v1
v17
o2
o2
n1.1
v1
v18
o2
o2
n0.96
v1
v19
o16
o2
o2
n1.9
v1
v20
o2
o2
n0.36
v1
v21
o2
o2
n1.32
v1
v23
o16
o2
o2
n1.86
v1
v24
o2
o2
n0.2
v1
v25
o2
o2
n0.56
v1
v26
o16
o2
o2
n1.9
v1
v27
o2
o2
n0.1
v1
v28
o16
o2
o2
n0.82
v1
v29
o2
o2
n0.58
v1
v31
o16
o2
o2
n0.8
v1
v32
o2
o2
n0.1
v1
v33
o16
o2
o2
n1.38
v1
v34
o2
o2
n0.12
v1
v35
o16
o2
o2
n1.54
v1
v36
o16
o2
o2
n1.64
v1
v37
o16
o2
o2
n1.44
v1
v38
o2
o2
n0.84
v1
v39
o16
o2
o2
n1.04
v2
v3
o2
o2
n1.68
v2
v4
o2
o2
n1.18
v2
v5
o16
o2
o2
n0.68
v2
v6
o16
o2
o2
n0.64
v2
v7
o16
o2
o2
n1.4
v2
v8
o16
o2
o2
n0.44
v2
v9
o16
o2
o2
n1.04
v2
v10
o2
o2
n0.2
v2
v11
o2
o2
n0.32
v2
v12
o16
o2
o2
n0.34
v2
v13
o2
o2
n0.98
v2
v14
o16
o2
o2
n0.12
v2
v15
o16
o2
o2
n0.8
v2
v16
o16
o2
o2
n0.94
v2
v17
o2
o2
n0.74
v2
v18
o2
o2
n0.32
v2
v19
o2
o2
n1.18
v2
v20
o16
o2
o2
n0.88
v2
v21
o16
o2
o2
n0.92
v2
v22
o2
o2
n0.48
v2
v23
o16
o2
o2
n0.04
v2
v24
o16
o2
o2
n1.8
v2
v25
o2
o2
n1.84
v2
v26
o16
o2
o2
n0.16
v2
v27
o2
o2
n1.34
v2
v28
o2
o2
n1.18
v2
v29
o16
o2
o2
n0.04
v2
v30
o2
o2
n1.22
v2
v31
o2
o2
n0.12
v2
v32
o2
o2
n0.94
v2
v33
o2
o2
n0.76
v2
v34
o2
o2
n0.78
v2
v35
o2
o2
n1.32
v2
v36
o2
o2
n0.62
v2
v37
o2
o2
n1.54
v2
v38
o2
o2
n0.06
v2
v39
o16
o2
o2
n0.05
v3
v3
o16
o2
o2
n0.28
v3
v4
o2
o2
n0.72
v3
v5
o2
o2
n0.12
v3
v6
o16
o2
v3
v7
o16
o2
o2
n1.36
v3
v8
o16
o2
o2
n1.5
v3
v9
o2
o2
n1.4
v3
v10
o2
o2
n0.12
v3
v11
o16
o2
o2
n1.54
v3
v12
o2
o2
n0.02
v3
v13
o16
o2
o2
n0.96
v3
v14
o16
o2
o2
n0.7
v3
v15
o2
o2
n0.96
v3
v16
o2
o2
n0.76
v3
v17
o16
o2
o2
n1.64
v3
v18
o2
o2
n0.66
v3
v19
o16
o2
o2
n1.56
v3
v20
o2
o2
n0.24
v3
v21
o2
o2
n1.08
v3
v22
o16
o2
o2
n0.72
v3
v23
o2
o2
n1.94
v3
v24
o16
o2
o2
n1.08
v3
v25
o16
o2
o2
n1.12
v3
v26
o16
o2
o2
n0.24
v3
v27
o2
o2
n1.96
v3
v28
o2
o2
n1.76
v3
v29
o16
o2
o2
n1.9
v3
v30
o16
o2
o2
n0.54
v3
v31
o16
o2
o2
n1.68
v3
v32
o16
o2
o2
n1.94
v3
v33
o2
o2
n1.1
v3
v34
o2
o2
n1.82
v3
v35
o16
o2
o2
n0.38
v3
v36
o16
o2
o2
n1.34
v3
v37
o16
o2
o2
n1.34
v3
v38
o2
o2
n0.62
v3
v39
o2
n-0.88
o5
v4
n2
o16
o2
o2
n1.74
v4
v5
o16
o2
o2
n0.42
v4
v6
o16
o2
o2
n1.96
v4
v7
o16
o2
o2
n1.02
v4
v8
o2
o2
n1.32
v4
v9
o2
o2
n1.06
v4
v10
o2
o2
n0.52
v4
v11
o16
o2
o2
n1.54
v4
v13
o16
o2
o2
n1.52
v4
v14
o16
o2
o2
n0.7
v4
v16
o16
o2
o2
n0.52
v4
v17
o2
o2
n0.06
v4
v18
o2
o2
n0.88
v4
v19
o2
o2
n0.04
v4
v20
o2
o2
n0.12
v4
v21
o2
o2
n1.86
v4
v22
o16
o2
o2
n0.98
v4
v23
o2
o2
n1.7
v4
v24
o2
o2
n0.16
v4
v25
o2
o2
n0.64
v4
v26
o16
o2
o2
n1.54
v4
v27
o16
o2
o2
n1.22
v4
v28
o2
o2
n1.02
v4
v29
o16
o2
o2
n1.86
v4
v30
o16
o2
o2
n1.14
v4
v31
o16
o2
o2
n0.4
v4
v32
o16
o2
o2
n0.12
v4
v33
o2
o2
n1.3
v4
v34
o2
o2
n0.68
v4
v35
o16
o2
o2
n1.58
v4
v36
o2
o2
n0.38
v4
v37
o2
o2
n0.26
v4
v38
o2
v4
v39
o2
n0.36
o5
v5
n2
o16
o2
o2
n1.22
v5
v6
o2
o2
n1.34
v5
v7
o2
o2
n1.7
v5
v8
o2
o2
n0.18
v5
v9
o16
o2
o2
n0.62
v5
v10
o2
o2
n1.58
v5
v11
o2
o2
n1.48
v5
v12
o2
o2
n0.74
v5
v13
o2
o2
n1.66
v5
v14
o2
o2
n0.46
v5
v15
o16
o2
o2
n1.62
v5
v16
o16
o2
o2
n1.62
v5
v17
o16
o2
o2
n0.28
v5
v18
o16
o2
o2
n0.86
v5
v19
o16
o2
o2
n0.18
v5
v20
o2
o2
n1.56
v5
v21
o2
o2
n0.52
v5
v22
o16
o2
o2
n0.14
v5
v23
o16
o2
o2
n0.04
v5
v24
o16
o2
o2
n0.68
v5
v25
o2
o2
n0.06
v5
v26
o2
o2
n0.48
v5
v27
o16
o2
o2
n1.4
v5
v28
o16
o2
o2
n0.68
v5
v29
o16
o2
o2
n0.38
v5
v30
o16
o2
o2
n1.06
v5
v31
o2
o2
n1.24
v5
v32
o16
o2
o2
n1.14
v5
v33
o2
o2
n0.78
v5
v34
o16
o2
o2
n0.2
v5
v35
o2
o2
n0.78
v5
v36
o16
o2
o2
n0.06
v5
v37
o2
o2
n0.98
v5
v38
o2
o2
n1.46
v5
v39
o2
n0.86
o5
v6
n2
o2
o2
n0.38
v6
v7
o16
o2
o2
n0.04
v6
v8
o16
o2
o2
n1.6
v6
v9
o2
o2
n0.58
v6
v10
o16
o2
o2
n1.84
v6
v11
o16
o2
o2
n0.04
v6
v12
o16
o2
o2
n0.52
v6
v13
o16
o2
o2
n1.04
v6
v14
o2
o2
n1.96
v6
v15
o16
o2
o2
n0.04
v6
v16
o2
o2
n0.58
v6
v17
o16
o2
o2
n0.5
v6
v18
o16
o2
o2
n1.66
v6
v19
o2
o2
n1.26
v6
v20
o16
o2
o2
n1.18
v6
v21
o2
o2
n0.88
v6
v22
o16
o2
o2
n1.24
v6
v23
o2
o2
n1.34
v6
v24
o2
o2
n0.26
v6
v26
o16
o2
o2
n1.76
v6
v27
o2
o2
n0.1
v6
v28
o16
o2
o2
n0.06
v6
v29
o2
o2
n0.18
v6
v30
o16
o2
o2
n1.94
v6
v31
o2
o2
n1.56
v6
v32
o2
o2
n0.58
v6
v33
o2
o2
n1.34
v6
v34
o16
o2
o2
n0.96
v6
v35
o2
o2
n1.42
v6
v36
o16
o2
o2
n0.32
v6
v37
o16
o2
o2
n0.36
v6
v38
o2
o2
n1.72
v6
v39
o2
n0.87
o5
v7
n2
o2
o2
n1.32
v7
v8
o16
o2
o2
n0.62
v7
v9
o16
o2
o2
n1.38
v7
v10
o16
o2
v7
v11
o2
o2
n1.7
v7
v12
o16
o2
o2
n1.62
v7
v13
o2
o2
n1.26
v7
v14
o16
o2
o2
n1.1
v7
v15
o2
o2
n1.44
v7
v16
o16
o2
o2
n1.44
v7
v17
o16
o2
o2
n0.52
v7
v18
o2
o2
n1.2
v7
v19
o2
o2
n1.2
v7
v20
o2
o2
n0.1
v7
v21
o2
o2
n1.7
v7
v23
o16
o2
o2
n1.52
v7
v24
o2
o2
n0.34
v7
v25
o16
o2
o2
n1.14
v7
v26
o2
o2
n0.82
v7
v27
o2
o2
n0.74
v7
v28
o2
o2
n0.62
v7
v30
o16
o2
o2
n0.26
v7
v31
o16
o2
o2
n1.26
v7
v32
o16
o2
o2
n0.4
v7
v33
o16
o2
o2
n0.12
v7
v34
o16
o2
o2
n0.12
v7
v35
o16
o2
o2
n0.84
v7
v36
o16
o2
o2
n0.94
v7
v37
o16
o2
o2
n1.62
v7
v38
o16
o2
o2
n0.7
v7
v39
o2
n0.15
o5
v8
n2
o2
o2
n1.94
v8
v9
o16
o2
o2
n1.62
v8
v10
o2
o2
n1.3
v8
v11
o2
o2
n0.76
v8
v12
o2
o2
n0.96
v8
v13
o16
o2
o2
n1.46
v8
v14
o16
o2
o2
n0.66
v8
v15
o2
o2
n1.54
v8
v16
o16
o2
o2
n1.86
v8
v17
o16
o2
o2
n0.5
v8
v18
o16
o2
o2
n0.74
v8
v19
o16
o2
o2
n1.5
v8
v20
o2
o2
n0.16
v8
v21
o2
o2
n1.5
v8
v22
o16
o2
o2
n1.62
v8
v23
o2
o2
n0.78
v8
v24
o2
o2
n1.06
v8
v25
o2
o2
n0.1
v8
v26
o2
o2
n1.9
v8
v27
o16
o2
o2
n0.18
v8
v28
o2
o2
n0.62
v8
v29
o2
o2
n0.42
v8
v30
o2
o2
n0.52
v8
v31
o2
o2
n0.74
v8
v32
o2
o2
n0.58
v8
v33
o2
o2
n0.9
v8
v34
o16
o2
o2
n0.38
v8
v35
o2
o2
n1.44
v8
v36
o2
o2
n0.64
v8
v37
o16
o2
o2
n1.82
v8
v38
o16
o2
o2
n1.38
v8
v39
o2
n0.09
o5
v9
n2
o16
o2
o2
n0.04
v9
v10
o2
o2
n1.26
v9
v11
o2
o2
n1.1
v9
v12
o16
o2
o2
n1.08
v9
v13
o2
o2
n0.24
v9
v14
o2
o2
n0.44
v9
v15
o2
o2
n0.62
v9
v16
o16
o2
o2
n1.88
v9
v17
o2
o2
n1.14
v9
v18
o16
o2
o2
n0.54
v9
v19
o2
o2
n1.68
v9
v20
o16
o2
o2
n0.16
v9
v21
o16
o2
o2
n0.88
v9
v22
o16
o2
o2
n1.16
v9
v23
o16
o2
o2
n0.6
v9
v24
o2
o2
n0.9
v9
v25
o16
o2
o2
n0.4
v9
v26
o16
o2
o2
n0.18
v9
v27
o16
o2
o2
n1.78
v9
v28
o2
o2
n1.82
v9
v29
o2
o2
n0.14
v9
v30
o16
o2
o2
n1.98
v9
v31
o2
o2
n1.86
v9
v32
o2
o2
n0.18
v9
v33
o16
o2
o2
n0.18
v9
v34
o2
o2
n0.02
v9
v35
o16
o2
o2
n0.96
v9
v36
o2
o2
n0.34
v9
v37
o2
o2
n0.38
v9
v38
o2
o2
n0.32
v9
v39
o2
n0.14
o5
v10
n2
o2
o2
n1.06
v10
v11
o16
o2
o2
n0.2
v10
v12
o16
o2
o2
n1.64
v10
v13
o16
o2
o2
n0.06
v10
v14
o16
o2
o2
n1.58
v10
v15
o2
o2
n0.68
v10
v16
o2
o2
n0.72
v10
v17
o2
o2
n1.28
v10
v18
o2
o2
n1.66
v10
v19
o16
o2
o2
n1.52
v10
v20
o16
o2
o2
n1.86
v10
v21
o2
o2
n0.86
v10
v22
o2
o2
n1.44
v10
v23
o2
o2
n0.9
v10
v24
o2
o2
n1.12
v10
v25
o2
o2
n0.24
v10
v26
o2
o2
n1.12
v10
v28
o2
o2
n1.64
v10
v29
o16
o2
o2
n0.68
v10
v30
o2
o2
n0.12
v10
v31
o16
o2
o2
n1.32
v10
v33
o16
o2
o2
n0.3
v10
v34
o16
o2
o2
n1.58
v10
v35
o16
o2
o2
n1.5
v10
v36
o2
o2
n1.2
v10
v37
o2
o2
n1.32
v10
v38
o2
o2
n0.24
v10
v39
o2
n-0.13
o5
v11
n2
o16
o2
o2
n1.32
v11
v12
o16
o2
o2
n1.84
v11
v13
o16
o2
o2
n0.4
v11
v14
o16
o2
o2
n1.42
v11
v15
o2
o2
n0.96
v11
v16
o2
o2
n1.12
v11
v17
o2
v11
v18
o16
o2
o2
n1.26
v11
v19
o2
o2
n1.74
v11
v20
o2
o2
n1.5
v11
v21
o2
o2
n1.44
v11
v22
o2
o2
n1.72
v11
v23
o16
o2
o2
n0.84
v11
v24
o16
o2
o2
n0.98
v11
v25
o16
o2
o2
n0.68
v11
v26
o16
o2
o2
n0.04
v11
v27
o2
o2
n1.36
v11
v28
o16
o2
o2
n0.9
v11
v30
o16
o2
o2
n0.7
v11
v31
o2
o2
n1.28
v11
v32
o2
o2
n0.48
v11
v33
o2
o2
n0.86
v11
v34
o16
o2
o2
n0.3
v11
v35
o16
o2
o2
n1.58
v11
v36
o16
o2
o2
n0.9
v11
v37
o2
o2
n1.08
v11
v38
o2
o2
n0.6
v11
v39
o2
n-0.82
o5
v12
n2
o2
o2
n0.12
v12
v13
o2
o2
n1.32
v12
v14
o2
o2
n0.34
v12
v15
o2
o2
n1.36
v12
v16
o16
o2
o2
n1.6
v12
v17
o16
o2
v12
v18
o16
o2
o2
n0.86
v12
v19
o16
o2
o2
n0.3
v12
v20
o16
o2
o2
n0.32
v12
v21
o2
o2
n0.24
v12
v22
o16
o2
o2
n0.04
v12
v23
o16
o2
o2
n0.1
v12
v24
o16
o2
o2
n0.96
v12
v25
o2
o2
n1.2
v12
v26
o16
o2
o2
n0.74
v12
v27
o16
o2
o2
n1.24
v12
v28
o2
o2
n1.98
v12
v29
o16
o2
o2
n0.1
v12
v30
o16
o2
o2
n0.3
v12
v31
o16
o2
o2
n1.6
v12
v32
o2
o2
n1.72
v12
v33
o16
o2
o2
n1.02
v12
v34
o2
o2
n0.7
v12
v36
o2
o2
n0.72
v12
v37
o2
o2
n0.04
v12
v38
o16
o2
o2
n1.34
v12
v39
o2
n0.02
o5
v13
n2
o2
o2
n0.6
v13
v14
o16
o2
o2
n1.66
v13
v15
o16
o2
o2
n0.06
v13
v16
o16
o2
o2
n1.62
v13
v17
o16
o2
o2
n0.98
v13
v18
o2
o2
n0.54
v13
v19
o16
o2
o2
n0.22
v13
v20
o16
o2
o2
n0.1
v13
v21
o16
o2
o2
n0.64
v13
v22
o16
o2
o2
n0.1
v13
v23
o2
o2
n0.82
v13
v24
o2
o2
n1.64
v13
v25
o2
o2
n0.28
v13
v26
o16
o2
o2
n0.56
v13
v27
o2
o2
n0.42
v13
v28
o2
o2
n1.06
v13
v29
o2
o2
n0.26
v13
v30
o16
o2
o2
n0.02
v13
v31
o2
o2
n1.02
v13
v32
o2
o2
n1.82
v13
v33
o16
o2
o2
n1.44
v13
v34
o2
o2
n0.78
v13
v35
o16
o2
o2
n0.92
v13
v36
o16
o2
o2
n0.56
v13
v37
o16
o2
o2
n1.68
v13
v38
o2
o2
n1.44
v13
v39
o2
n-0.47
o5
v14
n2
o2
o2
n0.44
v14
v15
o2
o2
n0.42
v14
v16
o2
o2
n0.04
v14
v17
o2
o2
n0.22
v14
v18
o2
o2
n1.88
v14
v19
o2
o2
n0.42
v14
v20
o16
o2
o2
n1.94
v14
v21
o16
o2
o2
n1.08
v14
v22
o16
o2
o2
n0.74
v14
v23
o2
o2
n0.18
v14
v24
o2
o2
n0.72
v14
v25
o16
o2
o2
n0.48
v14
v26
o16
o2
o2
n1.56
v14
v27
o16
o2
o2
n0.9
v14
v28
o2
o2
n1.66
v14
v29
o16
o2
o2
n1.86
v14
v30
o16
o2
o2
n0.82
v14
v31
o16
o2
o2
n0.34
v14
v32
o16
o2
o2
n1.22
v14
v33
o16
o2
o2
n1.94
v14
v34
o2
o2
n1.96
v14
v35
o2
o2
n1.24
v14
v36
o16
o2
o2
n0.84
v14
v37
o16
o2
o2
n1.96
v14
v38
o2
o2
n1.36
v14
v39
o2
n-0.86
o5
v15
n2
o2
o2
n1.08
v15
v16
o2
o2
n1.54
v15
v17
o2
o2
n1.76
v15
v18
o2
o2
n1.1
v15
v19
o2
o2
n0.16
v15
v20
o2
o2
n0.24
v15
v21
o2
o2
n1.72
v15
v22
o2
o2
n1.32
v15
v23
o16
o2
o2
n0.58
v15
v24
o16
o2
o2
n0.72
v15
v25
o16
o2
o2
n1.22
v15
v26
o16
o2
o2
n1.78
v15
v27
o2
o2
n0.4
v15
v28
o16
o2
o2
n0.74
v15
v29
o16
o2
o2
n0.54
v15
v30
o16
o2
o2
n0.12
v15
v31
o16
o2
o2
n1.3
v15
v32
o2
o2
n1.82
v15
v33
o16
o2
o2
n0.4
v15
v34
o16
o2
o2
n0.3
v15
v35
o16
o2
o2
n0.54
v15
v36
o2
o2
n0.32
v15
v37
o2
o2
n1.18
v15
v38
o2
o2
n0.54
v15
v39
o2
n0.01
o5
v16
n2
o2
o2
n1.32
v16
v17
o2
o2
n0.56
v16
v20
o16
o2
o2
n1.56
v16
v21
o2
o2
n0.14
v16
v22
o2
o2
n0.04
v16
v23
o2
o2
n1.46
v16
v24
o16
o2
o2
n0.12
v16
v26
o16
o2
o2
n1.6
v16
v27
o2
o2
n1.58
v16
v28
o2
o2
n1.78
v16
v29
o16
o2
o2
n1.74
v16
v30
o16
o2
o2
n0.92
v16
v31
o2
o2
n1.02
v16
v32
o2
o2
n0.54
v16
v33
o16
o2
o2
n1.68
v16
v34
o16
o2
o2
n0.74
v16
v35
o16
o2
o2
n0.7
v16
v36
o16
o2
o2
n1.72
v16
v37
o16
o2
o2
n0.88
v16
v38
o2
o2
n1.62
v16
v39
o2
n0.2
o5
v17
n2
o2
o2
n0.34
v17
v18
o16
o2
o2
n1.02
v17
v19
o16
o2
o2
n0.44
v17
v20
o2
o2
n1.6
v17
v21
o2
o2
n0.32
v17
v22
o16
o2
o2
n1.88
v17
v24
o16
o2
o2
n1.22
v17
v25
o2
o2
n1.8
v17
v26
o16
o2
o2
n0.64
v17
v27
o2
o2
n0.48
v17
v28
o16
o2
o2
n1.88
v17
v29
o2
o2
n1.92
v17
v30
o2
o2
n0.06
v17
v31
o2
o2
n1.84
v17
v32
o2
o2
n1.24
v17
v33
o2
o2
n1.08
v17
v34
o16
o2
o2
n1.42
v17
v35
o16
o2
o2
n1.94
v17
v36
o2
o2
n0.36
v17
v37
o2
o2
n0.62
v17
v38
o2
o2
n0.98
v17
v39
o2
n-0.15
o5
v18
n2
o16
o2
o2
n1.72
v18
v19
o16
o2
o2
n0.68
v18
v20
o2
o2
n0.02
v18
v21
o16
o2
o2
n1.8
v18
v22
o16
o2
o2
n1.34
v18
v23
o16
o2
o2
n1.28
v18
v24
o2
o2
n0.86
v18
v25
o16
o2
o2
n1.36
v18
v26
o2
o2
n1.46
v18
v27
o2
o2
n0.88
v18
v28
o16
o2
o2
n0.94
v18
v29
o2
o2
n1.04
v18
v30
o16
o2
o2
n1.72
v18
v31
o2
o2
n1.52
v18
v32
o16
o2
o2
n1.1
v18
v33
o16
o2
o2
n0.46
v18
v34
o16
o2
o2
n1.62
v18
v35
o16
o2
o2
n0.14
v18
v36
o2
o2
n0.06
v18
v37
o2
v18
v38
o2
o2
n0.12
v18
v39
o2
n0.4
o5
v19
n2
o16
o2
o2
n1.58
v19
v20
o2
o2
n0.08
v19
v21
o2
o2
n0.18
v19
v22
o2
o2
n1.2
v19
v23
o16
o2
o2
n1.98
v19
v24
o2
o2
n0.64
v19
v25
o16
o2
o2
n0.32
v19
v26
o16
o2
o2
n0.08
v19
v27
o2
o2
n0.22
v19
v28
o16
o2
o2
n0.52
v19
v29
o16
o2
o2
n1.32
v19
v30
o2
o2
n0.72
v19
v31
o16
o2
o2
n1.36
v19
v32
o2
o2
n1.68
v19
v33
o2
o2
n1.16
v19
v34
o2
o2
n1.4
v19
v35
o16
o2
o2
n1.3
v19
v36
o2
o2
n1.04
v19
v37
o2
o2
n1.06
v19
v38
o2
v19
v39
o2
n0.2
o5
v20
n2
o2
o2
n1.82
v20
v21
o2
o2
n1.1
v20
v23
o2
o2
n0.26
v20
v24
o2
o2
n0.54
v20
v25
o2
o2
n1.3
v20
v26
o2
o2
n1.58
v20
v27
o16
o2
o2
n0.86
v20
v29
o2
o2
n1.04
v20
v30
o16
o2
o2
n0.26
v20
v31
o2
o2
n0.12
v20
v32
o16
o2
o2
n1.8
v20
v33
o16
o2
o2
n1.54
v20
v34
o2
o2
n1.82
v20
v35
o16
o2
o2
n1.2
v20
v36
o2
o2
n1.38
v20
v37
o2
o2
n0.56
v20
v38
o16
o2
o2
n1.6
v20
v39
o2
n0.95
o5
v21
n2
o2
o2
n2
v21
v22
o16
o2
o2
n0.28
v21
v23
o16
o2
o2
n1.92
v21
v24
o2
o2
n1.12
v21
v25
o16
o2
o2
n1.78
v21
v26
o16
o2
o2
n1.72
v21
v27
o16
o2
o2
n1.06
v21
v29
o2
o2
n0.98
v21
v30
o16
o2
o2
n1.9
v21
v31
o2
o2
n0.64
v21
v32
o2
o2
n1.82
v21
v33
o16
o2
o2
n1.44
v21
v34
o16
o2
o2
n0.6
v21
v35
o16
o2
o2
n1.5
v21
v36
o16
o2
o2
n0.96
v21
v37
o16
o2
o2
n0.62
v21
v38
o16
o2
o2
n0.32
v21
v39
o2
n0.48
o5
v22
n2
o2
o2
n1.84
v22
v23
o16
o2
o2
n1.78
v22
v24
o16
o2
o2
n2
v22
v25
o16
o2
o2
n0.6
v22
v26
o16
o2
o2
n0.08
v22
v27
o16
o2
o2
n1.38
v22
v28
o2
o2
n1.38
v22
v29
o2
o2
n0.4
v22
v30
o2
o2
n1.5
v22
v31
o2
o2
n2
v22
v32
o16
o2
o2
n1.84
v22
v33
o16
o2
o2
n1.56
v22
v34
o2
o2
n1.82
v22
v35
o16
o2
o2
n0.04
v22
v36
o16
o2
o2
n0.34
v22
v37
o16
o2
o2
n1.82
v22
v38
o16
o2
o2
n1.38
v22
v39
o2
n-0.94
o5
v23
n2
o2
o2
n1.86
v23
v24
o16
o2
v23
v25
o16
o2
o2
n0.26
v23
v26
o2
o2
n0.48
v23
v27
o2
o2
n1.94
v23
v28
o16
o2
o2
n1.7
v23
v29
o2
o2
n1.62
v23
v30
o16
o2
o2
n1.16
v23
v31
o2
o2
n1.8
v23
v32
o16
o2
o2
n1.94
v23
v33
o2
o2
n1.16
v23
v34
o16
o2
o2
n0.84
v23
v35
o16
o2
o2
n0.62
v23
v36
o16
o2
o2
n0.8
v23
v37
o16
o2
o2
n1.22
v23
v38
o16
o2
o2
n1.78
v23
v39
o2
n0.67
o5
v24
n2
o2
o2
n0.56
v24
v25
o16
o2
o2
n1.38
v24
v26
o2
o2
n0.58
v24
v27
o16
o2
o2
n1.16
v24
v28
o2
o2
n0.64
v24
v29
o2
o2
n1.9
v24
v30
o16
o2
o2
n0.52
v24
v31
o16
o2
o2
n1.92
v24
v32
o2
o2
n0.24
v24
v33
o2
o2
n1.88
v24
v34
o16
o2
o2
n0.42
v24
v35
o2
o2
n0.44
v24
v36
o16
o2
o2
n1.52
v24
v37
o16
o2
o2
n1.94
v24
v38
o2
o2
n0.24
v24
v39
o2
n-0.73
o5
v25
n2
o16
o2
o2
n0.8
v25
v26
o2
o2
n1.3
v25
v27
o2
o2
n0.02
v25
v28
o2
o2
n1.04
v25
v29
o2
o2
n0.16
v25
v31
o16
o2
o2
n1.32
v25
v32
o2
o2
n0.66
v25
v33
o16
o2
o2
n1.42
v25
v34
o16
o2
o2
n1.26
v25
v35
o16
o2
o2
n0.42
v25
v36
o16
o2
o2
n1.58
v25
v37
o2
o2
n1.94
v25
v39
o2
n-0.12
o5
v26
n2
o16
o2
o2
n0.5
v26
v27
o2
o2
n0.9
v26
v28
o2
o2
n0.54
v26
v29
o2
o2
n1.22
v26
v30
o16
o2
o2
n0.96
v26
v31
o16
o2
o2
n1.56
v26
v32
o16
o2
o2
n0.98
v26
v33
o2
o2
n1.94
v26
v34
o16
o2
o2
n1.22
v26
v35
o2
o2
n1.24
v26
v36
o2
o2
n1.68
v26
v37
o16
o2
o2
n1.68
v26
v38
o2
o2
n0.16
v26
v39
o2
n0.93
o5
v27
n2
o2
o2
n2
v27
v28
o2
o2
n0.42
v27
v29
o2
o2
n1.04
v27
v30
o2
o2
n0.2
v27
v31
o2
o2
n0.8
v27
v32
o16
o2
o2
n0.02
v27
v33
o2
o2
n1.2
v27
v34
o16
o2
o2
n1.96
v27
v35
o2
o2
n0.48
v27
v36
o2
o2
n1.92
v27
v37
o2
o2
n1.68
v27
v38
o16
o2
o2
n1.76
v27
v39
o2
n0.47
o5
v28
n2
o2
o2
n1.52
v28
v29
o2
o2
n0.02
v28
v30
o16
o2
o2
n1.34
v28
v31
o16
o2
o2
n0.44
v28
v32
o2
o2
n1.26
v28
v33
o16
o2
o2
n1.82
v28
v34
o16
o2
o2
n0.44
v28
v35
o2
o2
n0.92
v28
v36
o2
o2
n0.42
v28
v37
o16
o2
o2
n1.44
v28
v38
o2
o2
n1.62
v28
v39
o2
n0.75
o5
v29
n2
o2
o2
n0.52
v29
v30
o16
o2
v29
v31
o16
o2
o2
n0.98
v29
v32
o2
o2
n1.06
v29
v33
o16
o2
o2
n1.48
v29
v34
o2
o2
n0.66
v29
v35
o2
o2
n0.72
v29
v36
o16
o2
o2
n1.66
v29
v37
o16
o2
o2
n1.02
v29
v38
o2
o2
n0.94
v29
v39
o2
n0.83
o5
v30
n2
o2
o2
n1.64
v30
v31
o2
o2
n0.78
v30
v32
o2
o2
n0.42
v30
v33
o2
o2
n1.06
v30
v34
o2
o2
n1.9
v30
v35
o2
o2
n0.16
v30
v36
o16
o2
o2
n1.8
v30
v37
o16
o2
o2
n0.84
v30
v38
o2
o2
n1.7
v30
v39
o2
n-0.25
o5
v31
n2
o2
o2
n0.78
v31
v32
o16
o2
o2
n1.78
v31
v33
o16
o2
o2
n1.3
v31
v34
o16
o2
o2
n1.9
v31
v35
o16
o2
o2
n0.02
v31
v36
o16
o2
o2
n0.68
v31
v37
o2
o2
n1.02
v31
v38
o2
o2
n0.12
v31
v39
o2
n-0.91
o5
v32
n2
o2
o2
n1.6
v32
v33
o2
o2
n1.76
v32
v34
o16
o2
o2
n0.86
v32
v35
o16
o2
o2
n1.9
v32
v36
o16
o2
o2
n1.92
v32
v37
o2
o2
n0.6
v32
v38
o16
o2
o2
n0.96
v32
v39
o2
n0.99
o5
v33
n2
o2
o2
n0.66
v33
v34
o16
o2
o2
n1.28
v33
v35
o16
o2
o2
n1.98
v33
v36
o2
o2
n1.94
v33
v37
o2
o2
n1.96
v33
v38
o2
o2
n1.12
v33
v39
o2
n0.63
o5
v34
n2
o2
o2
n1.56
v34
v35
o2
o2
n0.64
v34
v36
o16
o2
o2
n0.98
v34
v37
o16
o2
o2
n0.5
v34
v38
o2
o2
n0.18
v34
v39
o2
n-0.76
o5
v35
n2
o2
o2
n1.32
v35
v36
o16
o2
o2
n1.14
v35
v37
o2
o2
n1.22
v35
v38
o16
o2
o2
n0.58
v35
v39
o2
n-0.82
o5
v36
n2
o16
o2
o2
n1.5
v36
v37
o16
o2
o2
n0.96
v36
v38
o16
o2
o2
n0.66
v36
v39
o2
n0.89
o5
v37
n2
o2
o2
n0.02
v37
v38
o2
o2
n0.22
v37
v39
o2
n0.03
o5
v38
n2
o16
o2
o2
n0.62
v38
v39
o2
n0.23
o5
v39
n2
k39
5
10
15
20
25
30
35
40
45
50
55
60
65
70
75
80
85
90
95
100
105
110
115
120
125
130
135
140
145
150
155
160
165
170
175
180
185
190
195
J0 40
0 0.7
1 -0.21
2 -0.02
3 -0.12
4 0.24
5 0.55
6 0.64
7 -0.53
8 0.64
9 0.77
10 -0.79
11 0.72
12 0.83
13 -0.33
14 -0.29
15 0.07
16 0.14
17 -0.99
18 -0.75
19 -0.37
20 0.74
21 0.49
22 -0.83
23 0.94
24 0.07
25 0.85
26 0.3
27 -0.75
28 -0.22
29 0.14
30 0.76
31 0.94
32 0.56
33 0.14
34 0.23
35 -0.67
36 -0.87
37 0.3
38 -0.73
39 0.81
J1 40
0 0.99
1 -0.71
2 -0.61
3 0.11
4 0.31
5 0.91
6 -0.07
7 -0.16
8 0.63
9 0.52
10 -0.75
11 -0.53
12 -0.04
13 0.27
14 -0.4
15 -0.26
16 -0.84
17 0.31
18 -0.1
19 -0.08
20 0.97
21 -0.01
22 -0.07
23 0.82
24 0.39
25 -0.47
26 -0.85
27 0.22
28 0.22
29 0.72
30 -0.22
31 0.43
32 0.35
33 -0.87
34 0.77
35 0.48
36 -0.56
37 -0.27
38 0.41
39 -0.58
J2 40
0 -0.83
1 -0.79
2 -0.79
3 0.42
4 -0.53
5 0.54
6 -0.36
7 -0.6
8 0.74
9 -0.89
10 -0.93
11 -0.02
12 0.45
13 0.45
14 0.35
15 0.2
16 0.29
17 -0.44
18 0.74
19 -0.5
20 0.83
21 -0.54
22 -0.52
23 -0.65
24 -0.61
25 -0.89
26 -0.48
27 0.34
28 0.93
29 -0.64
30 -0.57
31 -0.8
32 0.67
33 0.96
34 0.64
35 -0.17
36 -0.62
37 -1
38 -0.94
39 -0.77
J3 40
0 0.52
1 0.29
2 -0.46
3 -0.21
4 0.17
5 0.68
6 0.95
7 0.11
8 0.56
9 0.41
10 0.48
11 0.53
12 0.78
13 -0.2
14 0.13
15 0.04
16 0.55
17 0.35
18 0.94
19 0.97
20 -0.34
21 0.78
22 -0.26
23 0.3
24 0.43
25 -0.61
26 0.46
27 -0.76
28 0.19
29 -0.39
30 -0.73
31 -0.51
32 -0.49
33 -0.36
34 0.46
35 0.12
36 0.5
37 -0.17
38 0.91
39 -0.4
J4 40
0 0.41
1 0.58
2 -0.19
3 0.68
4 0.32
5 0.47
6 0.36
7 -0.42
8 0.21
9 -0.91
10 0.8
11 0.59
12 -0.13
13 -0.52
14 -0.47
15 0.85
16 -0.67
17 0.22
18 0.96
19 0.58
20 0.35
21 -0.22
22 -0.5
23 -0.94
24 -0.95
25 -0.21
26 0.47
27 -0.97
28 -0.35
29 -0.32
30 0.94
31 -0.48
32 0.47
33 0.43
34 0.99
35 -0.58
36 0.81
37 -0.1
38 -0.89
39 0.34
G0 40
0 -0.22
1 -0.43
2 -0.11
3 -0.3
4 -0.61
5 0.46
6 -0.65
7 0.41
8 0.4
9 0.01
10 -0.94
11 0.2
12 0.69
13 -0.28
14 -0.11
15 -0.42
16 -0.05
17 -0.59
18 -0.57
19 0.64
20 0.11
21 -0.53
22 -0.03
23 0.9
24 0.34
25 0.64
26 0.79
27 -0.76
28 0.01
29 0.83
30 0.24
31 0.55
32 0.81
33 -0.94
34 0.46
35 0.27
36 0.57
37 0.43
38 0.9
39 -0.12
